n = 10;
s = 9;
t = 2;
poids = [[10000.0, 10000.0, 10000.0, 10000.0, 10000.0, 9.7, 7.9, 10000.0, 10000.0, 1.1], [10000.0, 10000.0, 10000.0, 10000.0, 10000.0, 10000.0, 10000.0, 10000.0, 10000.0, 10000.0], [10000.0, 10000.0, 10000.0, 10000.0, 10000.0, 10000.0, 10000.0, 9.4, 10000.0, 10000.0], [10000.0, 4.1, 8.9, 10000.0, 2.0, 10.0, 9.4, 10000.0, 10000.0, 10000.0], [10000.0, 1.4, 10000.0, 10000.0, 10000.0, 10000.0, 9.6, 10000.0, 10000.0, 10000.0], [10000.0, 10000.0, 4.0, 10000.0, 9.0, 10000.0, 10000.0, 10000.0, 10000.0, 10000.0], [10000.0, 6.4, 10000.0, 10000.0, 10000.0, 10000.0, 10000.0, 9.7, 10000.0, 10000.0], [10000.0, 10000.0, 10000.0, 10000.0, 10000.0, 10000.0, 10000.0, 10000.0, 10000.0, 10000.0], [5.5, 5.2, 3.4, 4.0, 10000.0, 10000.0, 10000.0, 10000.0, 10000.0, 10000.0], [10000.0, 10000.0, 10000.0, 7.7, 10000.0, 10000.0, 10000.0, 10000.0, 10000.0, 10000.0]];